(declare-const |phi_main__t:349:452:1213| Int)
(declare-const |havoc:9:59:138:334:342:466:1227| Int)
(declare-const __VERIFIER_assert__cond___16 Int)
(declare-const havoc Int)
(declare-const |__VERIFIER_assert__cond___16':144:164:171:340:464:1225| Int)
(declare-const |havoc:3:58:1210| Int)
(declare-const |phi___VERIFIER_assert__cond___12:346:455:1216| Int)
(declare-const |__VERIFIER_assert__cond___15':143:161:168:337:461:1222| Int)
(declare-const |phi___VERIFIER_assert__cond___16:343:458:1219| Int)
(declare-const |main____CPAchecker_TMP_0___0':142:165:172:341:465:1226| Int)
(declare-const |phi_main____CPAchecker_TMP_0:348:453:1214| Int)
(declare-const |main__t':140:160:167:336:460:1221| Int)
(declare-const |phi___VERIFIER_assert__cond___15:344:457:1218| Int)
(declare-const __VERIFIER_assert__cond___11 Int)
(declare-const |phi_main____CPAchecker_TMP_0___0:345:456:1217| Int)
(declare-const __VERIFIER_assert__cond___12 Int)
(declare-const |phi___VERIFIER_assert__cond___11:347:454:1215| Int)
(declare-const __tmp_383_0 Int)
(declare-const main____CPAchecker_TMP_0___0 Int)
(declare-const __VERIFIER_assert__cond___15 Int)
(declare-const |__tmp_383_0':139:163:170:339:463:1224| Int)
(declare-const |phi___tmp_383_0:351:450:1211| Int)
(declare-const |phi___tmp_247_0:350:451:1212| Int)
(declare-const |K:158:159:166:335:459:1220| Int)
(declare-const |main____CPAchecker_TMP_0':141:162:169:338:462:1223| Int)
(assert (and (<= (+ (- havoc) 1) 0) (not (= (+ (- havoc) 1) 0))
               (or (and (not (= |havoc:3:58:1210| 0))
                          (= (+ (- |phi___tmp_383_0:351:450:1211|)
                                  __tmp_383_0) 0)
                          (= (+ (- |phi___tmp_247_0:350:451:1212|)
                                  |havoc:3:58:1210|) 0)
                          (= (- |phi_main__t:349:452:1213|) 0)
                          (= (+ (- |phi_main____CPAchecker_TMP_0:348:453:1214|)
                                  |havoc:3:58:1210|) 0)
                          (= (+ (- |phi___VERIFIER_assert__cond___11:347:454:1215|)
                                  __VERIFIER_assert__cond___11) 0)
                          (= (+ (- |phi___VERIFIER_assert__cond___12:346:455:1216|)
                                  __VERIFIER_assert__cond___12) 0)
                          (= (+ (- |phi_main____CPAchecker_TMP_0___0:345:456:1217|)
                                  main____CPAchecker_TMP_0___0) 0)
                          (= (+ (- |phi___VERIFIER_assert__cond___15:344:457:1218|)
                                  __VERIFIER_assert__cond___15) 0)
                          (= (+ (- |phi___VERIFIER_assert__cond___16:343:458:1219|)
                                  __VERIFIER_assert__cond___16) 0))
                     (and (= |havoc:3:58:1210| 0)
                            (not (= (ite (<= (+ (- havoc) 1) 0) 1 0) 0))
                            (or (not (<= (- |K:158:159:166:335:459:1220|) 0))
                                  (= (+ |main__t':140:160:167:336:460:1221|
                                          (- |K:158:159:166:335:459:1220|)) 0))
                            (or (not (and (<= (- |K:158:159:166:335:459:1220|) 0)
                                            (<= |K:158:159:166:335:459:1220| 0)))
                                  (= (+ |__VERIFIER_assert__cond___15':143:161:168:337:461:1222|
                                          (- __VERIFIER_assert__cond___15)) 0))
                            (or (not (<= (+ (- |K:158:159:166:335:459:1220|)
                                              1) 0))
                                  (= (+ |__VERIFIER_assert__cond___15':143:161:168:337:461:1222|
                                          -1) 0))
                            (or (not (and (<= (- |K:158:159:166:335:459:1220|) 0)
                                            (<= |K:158:159:166:335:459:1220| 0)))
                                  (= (+ |main____CPAchecker_TMP_0':141:162:169:338:462:1223|
                                          (- |havoc:3:58:1210|)) 0))
                            (or (not (<= (+ (- |K:158:159:166:335:459:1220|)
                                              1) 0))
                                  (= |main____CPAchecker_TMP_0':141:162:169:338:462:1223| 0))
                            (or (not (and (<= (- |K:158:159:166:335:459:1220|) 0)
                                            (<= |K:158:159:166:335:459:1220| 0)))
                                  (= (+ |__tmp_383_0':139:163:170:339:463:1224|
                                          (- |havoc:3:58:1210|)) 0))
                            (or (not (<= (+ (- |K:158:159:166:335:459:1220|)
                                              1) 0))
                                  (= |__tmp_383_0':139:163:170:339:463:1224| 0))
                            (or (not (and (<= (- |K:158:159:166:335:459:1220|) 0)
                                            (<= |K:158:159:166:335:459:1220| 0)))
                                  (= (+ |__VERIFIER_assert__cond___16':144:164:171:340:464:1225|
                                          (- __VERIFIER_assert__cond___16)) 0))
                            (or (not (<= (+ (- |K:158:159:166:335:459:1220|)
                                              1) 0))
                                  (= (+ |__VERIFIER_assert__cond___16':144:164:171:340:464:1225|
                                          -1) 0))
                            (or (not (and (<= (- |K:158:159:166:335:459:1220|) 0)
                                            (<= |K:158:159:166:335:459:1220| 0)))
                                  (= (+ |main____CPAchecker_TMP_0___0':142:165:172:341:465:1226|
                                          (- main____CPAchecker_TMP_0___0)) 0))
                            (or (not (<= (+ (- |K:158:159:166:335:459:1220|)
                                              1) 0))
                                  (= |main____CPAchecker_TMP_0___0':142:165:172:341:465:1226| 0))
                            (or (and (= |K:158:159:166:335:459:1220| 0)
                                       (= (+ (- |__VERIFIER_assert__cond___16':144:164:171:340:464:1225|)
                                               __VERIFIER_assert__cond___16) 0)
                                       (= (+ (- |__VERIFIER_assert__cond___15':143:161:168:337:461:1222|)
                                               __VERIFIER_assert__cond___15) 0)
                                       (= (+ (- |main____CPAchecker_TMP_0___0':142:165:172:341:465:1226|)
                                               main____CPAchecker_TMP_0___0) 0)
                                       (= (+ (- |main____CPAchecker_TMP_0':141:162:169:338:462:1223|)
                                               |havoc:3:58:1210|) 0)
                                       (= (- |main__t':140:160:167:336:460:1221|) 0)
                                       (= (+ (- |__tmp_383_0':139:163:170:339:463:1224|)
                                               |havoc:3:58:1210|) 0))
                                  (and (<= (+ (- |K:158:159:166:335:459:1220|)
                                                1) 0) (= |havoc:3:58:1210| 0)
                                         (= |havoc:3:58:1210| 0)
                                         (<= (+ (- havoc) 3) 0)
                                         (= (+ |__VERIFIER_assert__cond___16':144:164:171:340:464:1225|
                                                 -1) 0)
                                         (= (+ |__VERIFIER_assert__cond___15':143:161:168:337:461:1222|
                                                 -1) 0)
                                         (= |main____CPAchecker_TMP_0':141:162:169:338:462:1223| 0)
                                         (= |main____CPAchecker_TMP_0___0':142:165:172:341:465:1226| 0)
                                         (= |__tmp_383_0':139:163:170:339:463:1224| 0)
                                         (<= (+ |main__t':140:160:167:336:460:1221|
                                                  (- havoc) 2) 0)
                                         (<= (+ (- |main__t':140:160:167:336:460:1221|)
                                                  1) 0)))
                            (<= (- |K:158:159:166:335:459:1220|) 0)
                            (= |__tmp_383_0':139:163:170:339:463:1224| 0)
                            (= |main____CPAchecker_TMP_0':141:162:169:338:462:1223| 0)
                            (<= (- |main__t':140:160:167:336:460:1221|) 0)
                            (< (+ (- havoc) 1) 0)
                            (= |__tmp_383_0':139:163:170:339:463:1224| 0)
                            (= |main____CPAchecker_TMP_0':141:162:169:338:462:1223| 0)
                            (not (= (+ |main__t':140:160:167:336:460:1221|
                                         (- havoc) 2) 0))
                            (not (= |havoc:9:59:138:334:342:466:1227| 0))
                            (= (+ |__tmp_383_0':139:163:170:339:463:1224|
                                    (- |phi___tmp_383_0:351:450:1211|)) 0)
                            (= (+ |havoc:9:59:138:334:342:466:1227|
                                    (- |phi___tmp_247_0:350:451:1212|)) 0)
                            (= (+ |main__t':140:160:167:336:460:1221|
                                    (- |phi_main__t:349:452:1213|) 1) 0)
                            (= (+ |__tmp_383_0':139:163:170:339:463:1224|
                                    (- |phi_main____CPAchecker_TMP_0:348:453:1214|)) 0)
                            (= (+ (- |phi___VERIFIER_assert__cond___11:347:454:1215|)
                                    1) 0)
                            (= (+ (ite (<= (+ (- havoc) 1) 0) 1 0)
                                    (- |phi___VERIFIER_assert__cond___12:346:455:1216|)) 0)
                            (= (+ |havoc:9:59:138:334:342:466:1227|
                                    (- |phi_main____CPAchecker_TMP_0___0:345:456:1217|)) 0)
                            (= (+ |__VERIFIER_assert__cond___15':143:161:168:337:461:1222|
                                    (- |phi___VERIFIER_assert__cond___15:344:457:1218|)) 0)
                            (= (+ |__VERIFIER_assert__cond___16':144:164:171:340:464:1225|
                                    (- |phi___VERIFIER_assert__cond___16:343:458:1219|)) 0)))
               (= (ite (<= (- |phi_main__t:349:452:1213|) 0) 1 0) 0)))
(check-sat)
